p cnf 430 1488
-191 40 0
-191 72 0
-191 -10 0
-191 -185 0
-191 -51 0
191 -40 -72 10 185 51 0
-192 189 0
-192 49 0
-192 170 0
-192 -30 0
-192 47 0
192 -189 -49 -170 30 -47 0
-193 11 0
-193 114 0
-193 136 0
-193 27 0
-193 44 0
193 -11 -114 -136 -27 -44 0
-194 26 0
-194 161 0
-194 18 0
-194 -126 0
-194 -170 0
194 -26 -161 -18 126 170 0
-195 -145 0
-195 121 0
-195 31 0
-195 -95 0
-195 36 0
195 145 -121 -31 95 -36 0
191 192 193 194 195 0
-196 -94 0
-196 143 0
-196 52 0
-196 174 0
-196 -95 0
196 94 -143 -52 -174 95 0
-197 -76 0
-197 -151 0
-197 173 0
-197 77 0
-197 -131 0
197 76 151 -173 -77 131 0
-198 12 0
-198 -183 0
-198 84 0
-198 48 0
-198 190 0
198 -12 183 -84 -48 -190 0
-199 116 0
-199 -156 0
-199 -107 0
-199 -100 0
-199 -19 0
199 -116 156 107 100 19 0
-200 55 0
-200 -36 0
-200 -40 0
-200 43 0
-200 171 0
200 -55 36 40 -43 -171 0
196 197 198 199 200 0
-201 -145 0
-201 164 0
-201 -163 0
-201 -77 0
-201 -121 0
201 145 -164 163 77 121 0
-202 114 0
-202 -130 0
-202 165 0
-202 13 0
-202 -39 0
202 -114 130 -165 -13 39 0
-203 -61 0
-203 -51 0
-203 119 0
-203 -78 0
-203 118 0
203 61 51 -119 78 -118 0
-204 51 0
-204 -135 0
-204 190 0
-204 105 0
-204 -10 0
204 -51 135 -190 -105 10 0
-205 90 0
-205 -138 0
-205 -8 0
-205 -160 0
-205 -4 0
205 -90 138 8 160 4 0
201 202 203 204 205 0
-206 -83 0
-206 181 0
-206 43 0
-206 -22 0
-206 78 0
206 83 -181 -43 22 -78 0
-207 186 0
-207 -13 0
-207 18 0
-207 -70 0
-207 64 0
207 -186 13 -18 70 -64 0
-208 155 0
-208 30 0
-208 -93 0
-208 181 0
-208 -60 0
208 -155 -30 93 -181 60 0
-209 106 0
-209 -55 0
-209 44 0
-209 107 0
-209 53 0
209 -106 55 -44 -107 -53 0
-210 -64 0
-210 65 0
-210 153 0
-210 -17 0
-210 -53 0
210 64 -65 -153 17 53 0
206 207 208 209 210 0
-211 27 0
-211 150 0
-211 -106 0
-211 -20 0
-211 -170 0
211 -27 -150 106 20 170 0
-212 45 0
-212 -178 0
-212 -136 0
-212 17 0
-212 -89 0
212 -45 178 136 -17 89 0
-213 151 0
-213 -83 0
-213 45 0
-213 -181 0
-213 -179 0
213 -151 83 -45 181 179 0
-214 55 0
-214 -148 0
-214 47 0
-214 100 0
-214 136 0
214 -55 148 -47 -100 -136 0
-215 95 0
-215 -45 0
-215 -80 0
-215 91 0
-215 9 0
215 -95 45 80 -91 -9 0
211 212 213 214 215 0
-216 105 0
-216 -129 0
-216 108 0
-216 120 0
-216 -68 0
216 -105 129 -108 -120 68 0
-217 11 0
-217 149 0
-217 94 0
-217 -9 0
-217 -61 0
217 -11 -149 -94 9 61 0
-218 118 0
-218 -181 0
-218 -109 0
-218 -14 0
-218 69 0
218 -118 181 109 14 -69 0
-219 83 0
-219 12 0
-219 -56 0
-219 43 0
-219 -27 0
219 -83 -12 56 -43 27 0
-220 147 0
-220 -94 0
-220 -131 0
-220 159 0
-220 179 0
220 -147 94 131 -159 -179 0
216 217 218 219 220 0
-221 158 0
-221 -33 0
-221 -139 0
-221 92 0
-221 -100 0
221 -158 33 139 -92 100 0
-222 -143 0
-222 -164 0
-222 33 0
-222 94 0
-222 103 0
222 143 164 -33 -94 -103 0
-223 -67 0
-223 159 0
-223 15 0
-223 98 0
-223 90 0
223 67 -159 -15 -98 -90 0
-224 -84 0
-224 123 0
-224 -180 0
-224 115 0
-224 118 0
224 84 -123 180 -115 -118 0
-225 -32 0
-225 137 0
-225 -155 0
-225 183 0
-225 14 0
225 32 -137 155 -183 -14 0
221 222 223 224 225 0
-226 87 0
-226 52 0
-226 106 0
-226 3 0
-226 153 0
226 -87 -52 -106 -3 -153 0
-227 -148 0
-227 -85 0
-227 11 0
-227 -177 0
-227 9 0
227 148 85 -11 177 -9 0
-228 142 0
-228 113 0
-228 61 0
-228 36 0
-228 -181 0
228 -142 -113 -61 -36 181 0
-229 -161 0
-229 -72 0
-229 -134 0
-229 140 0
-229 116 0
229 161 72 134 -140 -116 0
-230 -38 0
-230 119 0
-230 127 0
-230 36 0
-230 164 0
230 38 -119 -127 -36 -164 0
226 227 228 229 230 0
-231 77 0
-231 88 0
-231 71 0
-231 89 0
-231 -33 0
231 -77 -88 -71 -89 33 0
-232 -80 0
-232 -166 0
-232 98 0
-232 -178 0
-232 -66 0
232 80 166 -98 178 66 0
-233 20 0
-233 -87 0
-233 -4 0
-233 -3 0
-233 -150 0
233 -20 87 4 3 150 0
-234 121 0
-234 44 0
-234 -8 0
-234 -108 0
-234 107 0
234 -121 -44 8 108 -107 0
-235 153 0
-235 61 0
-235 144 0
-235 -46 0
-235 50 0
235 -153 -61 -144 46 -50 0
231 232 233 234 235 0
-236 139 0
-236 -173 0
-236 181 0
-236 115 0
-236 84 0
236 -139 173 -181 -115 -84 0
-237 -91 0
-237 -65 0
-237 21 0
-237 147 0
-237 32 0
237 91 65 -21 -147 -32 0
-238 -176 0
-238 -126 0
-238 190 0
-238 164 0
-238 24 0
238 176 126 -190 -164 -24 0
-239 -92 0
-239 -20 0
-239 -39 0
-239 -51 0
-239 38 0
239 92 20 39 51 -38 0
-240 105 0
-240 -90 0
-240 91 0
-240 -100 0
-240 -104 0
240 -105 90 -91 100 104 0
236 237 238 239 240 0
-241 -186 0
-241 172 0
-241 -137 0
-241 102 0
-241 -167 0
241 186 -172 137 -102 167 0
-242 167 0
-242 -109 0
-242 50 0
-242 178 0
-242 186 0
242 -167 109 -50 -178 -186 0
-243 132 0
-243 30 0
-243 -51 0
-243 9 0
-243 -135 0
243 -132 -30 51 -9 135 0
-244 -164 0
-244 -147 0
-244 175 0
-244 -24 0
-244 143 0
244 164 147 -175 24 -143 0
-245 70 0
-245 143 0
-245 157 0
-245 -28 0
-245 -120 0
245 -70 -143 -157 28 120 0
241 242 243 244 245 0
-246 104 0
-246 185 0
-246 62 0
-246 -76 0
-246 -6 0
246 -104 -185 -62 76 6 0
-247 -116 0
-247 12 0
-247 71 0
-247 129 0
-247 -59 0
247 116 -12 -71 -129 59 0
-248 149 0
-248 -57 0
-248 85 0
-248 125 0
-248 -151 0
248 -149 57 -85 -125 151 0
-249 -141 0
-249 45 0
-249 86 0
-249 88 0
-249 -83 0
249 141 -45 -86 -88 83 0
-250 186 0
-250 171 0
-250 -124 0
-250 138 0
-250 -26 0
250 -186 -171 124 -138 26 0
246 247 248 249 250 0
-251 17 0
-251 -175 0
-251 78 0
-251 132 0
-251 80 0
251 -17 175 -78 -132 -80 0
-252 116 0
-252 93 0
-252 -99 0
-252 110 0
-252 167 0
252 -116 -93 99 -110 -167 0
-253 16 0
-253 170 0
-253 15 0
-253 -148 0
-253 -73 0
253 -16 -170 -15 148 73 0
-254 -92 0
-254 71 0
-254 103 0
-254 86 0
-254 -172 0
254 92 -71 -103 -86 172 0
-255 -126 0
-255 62 0
-255 -166 0
-255 -130 0
-255 155 0
255 126 -62 166 130 -155 0
251 252 253 254 255 0
-256 153 0
-256 -113 0
-256 -148 0
-256 -110 0
-256 131 0
256 -153 113 148 110 -131 0
-257 -92 0
-257 27 0
-257 -80 0
-257 127 0
-257 -68 0
257 92 -27 80 -127 68 0
-258 -187 0
-258 -14 0
-258 1 0
-258 -176 0
-258 27 0
258 187 14 -1 176 -27 0
-259 -6 0
-259 -113 0
-259 -80 0
-259 22 0
-259 -124 0
259 6 113 80 -22 124 0
-260 149 0
-260 -10 0
-260 -142 0
-260 -31 0
-260 134 0
260 -149 10 142 31 -134 0
256 257 258 259 260 0
-261 120 0
-261 92 0
-261 -168 0
-261 -189 0
-261 63 0
261 -120 -92 168 189 -63 0
-262 -36 0
-262 -90 0
-262 -24 0
-262 -68 0
-262 152 0
262 36 90 24 68 -152 0
-263 -44 0
-263 176 0
-263 73 0
-263 56 0
-263 168 0
263 44 -176 -73 -56 -168 0
-264 -6 0
-264 78 0
-264 4 0
-264 50 0
-264 -37 0
264 6 -78 -4 -50 37 0
-265 186 0
-265 -69 0
-265 -97 0
-265 28 0
-265 67 0
265 -186 69 97 -28 -67 0
261 262 263 264 265 0
-266 128 0
-266 -36 0
-266 66 0
-266 135 0
-266 168 0
266 -128 36 -66 -135 -168 0
-267 187 0
-267 171 0
-267 -170 0
-267 -50 0
-267 142 0
267 -187 -171 170 50 -142 0
-268 -26 0
-268 -138 0
-268 -137 0
-268 68 0
-268 183 0
268 26 138 137 -68 -183 0
-269 -118 0
-269 150 0
-269 137 0
-269 -140 0
-269 -21 0
269 118 -150 -137 140 21 0
-270 20 0
-270 138 0
-270 -137 0
-270 -147 0
-270 -159 0
270 -20 -138 137 147 159 0
266 267 268 269 270 0
-271 181 0
-271 -24 0
-271 -119 0
-271 31 0
-271 -68 0
271 -181 24 119 -31 68 0
-272 19 0
-272 62 0
-272 -99 0
-272 189 0
-272 106 0
272 -19 -62 99 -189 -106 0
-273 -171 0
-273 -1 0
-273 -62 0
-273 -129 0
-273 85 0
273 171 1 62 129 -85 0
-274 -169 0
-274 -162 0
-274 125 0
-274 -26 0
-274 179 0
274 169 162 -125 26 -179 0
-275 71 0
-275 -117 0
-275 49 0
-275 70 0
-275 155 0
275 -71 117 -49 -70 -155 0
271 272 273 274 275 0
-276 -86 0
-276 74 0
-276 -152 0
-276 -77 0
-276 -112 0
276 86 -74 152 77 112 0
-277 185 0
-277 37 0
-277 108 0
-277 158 0
-277 -165 0
277 -185 -37 -108 -158 165 0
-278 184 0
-278 67 0
-278 116 0
-278 48 0
-278 8 0
278 -184 -67 -116 -48 -8 0
-279 -42 0
-279 137 0
-279 153 0
-279 -159 0
-279 157 0
279 42 -137 -153 159 -157 0
-280 -18 0
-280 31 0
-280 8 0
-280 73 0
-280 149 0
280 18 -31 -8 -73 -149 0
276 277 278 279 280 0
-281 129 0
-281 60 0
-281 -69 0
-281 -68 0
-281 -144 0
281 -129 -60 69 68 144 0
-282 47 0
-282 13 0
-282 64 0
-282 -32 0
-282 26 0
282 -47 -13 -64 32 -26 0
-283 -25 0
-283 -99 0
-283 -120 0
-283 -186 0
-283 -48 0
283 25 99 120 186 48 0
-284 76 0
-284 153 0
-284 126 0
-284 -50 0
-284 -97 0
284 -76 -153 -126 50 97 0
-285 -177 0
-285 -49 0
-285 123 0
-285 -131 0
-285 -82 0
285 177 49 -123 131 82 0
281 282 283 284 285 0
-286 118 0
-286 -101 0
-286 117 0
-286 -158 0
-286 94 0
286 -118 101 -117 158 -94 0
-287 184 0
-287 126 0
-287 55 0
-287 95 0
-287 -128 0
287 -184 -126 -55 -95 128 0
-288 -118 0
-288 -88 0
-288 122 0
-288 -128 0
-288 -36 0
288 118 88 -122 128 36 0
-289 -82 0
-289 -20 0
-289 -54 0
-289 -83 0
-289 24 0
289 82 20 54 83 -24 0
-290 188 0
-290 166 0
-290 -72 0
-290 -23 0
-290 -99 0
290 -188 -166 72 23 99 0
286 287 288 289 290 0
-291 -67 0
-291 -24 0
-291 -89 0
-291 177 0
-291 150 0
291 67 24 89 -177 -150 0
-292 -125 0
-292 -40 0
-292 -63 0
-292 -87 0
-292 138 0
292 125 40 63 87 -138 0
-293 83 0
-293 -22 0
-293 -54 0
-293 -74 0
-293 175 0
293 -83 22 54 74 -175 0
-294 -7 0
-294 -46 0
-294 113 0
-294 -104 0
-294 -31 0
294 7 46 -113 104 31 0
-295 -26 0
-295 -135 0
-295 12 0
-295 -159 0
-295 25 0
295 26 135 -12 159 -25 0
291 292 293 294 295 0
-296 19 0
-296 -42 0
-296 94 0
-296 -79 0
-296 -125 0
296 -19 42 -94 79 125 0
-297 -51 0
-297 149 0
-297 -22 0
-297 -13 0
-297 -185 0
297 51 -149 22 13 185 0
-298 110 0
-298 -122 0
-298 -146 0
-298 77 0
-298 -8 0
298 -110 122 146 -77 8 0
-299 67 0
-299 5 0
-299 10 0
-299 -119 0
-299 93 0
299 -67 -5 -10 119 -93 0
-300 32 0
-300 -143 0
-300 -104 0
-300 -161 0
-300 137 0
300 -32 143 104 161 -137 0
296 297 298 299 300 0
-301 -73 0
-301 153 0
-301 -111 0
-301 -22 0
-301 -123 0
301 73 -153 111 22 123 0
-302 -39 0
-302 -145 0
-302 5 0
-302 -179 0
-302 -149 0
302 39 145 -5 179 149 0
-303 -70 0
-303 40 0
-303 10 0
-303 96 0
-303 152 0
303 70 -40 -10 -96 -152 0
-304 -77 0
-304 162 0
-304 -30 0
-304 -35 0
-304 -157 0
304 77 -162 30 35 157 0
-305 -116 0
-305 36 0
-305 174 0
-305 126 0
-305 -140 0
305 116 -36 -174 -126 140 0
301 302 303 304 305 0
-306 85 0
-306 182 0
-306 143 0
-306 -74 0
-306 189 0
306 -85 -182 -143 74 -189 0
-307 172 0
-307 -176 0
-307 10 0
-307 -40 0
-307 -135 0
307 -172 176 -10 40 135 0
-308 -183 0
-308 -84 0
-308 -51 0
-308 -78 0
-308 57 0
308 183 84 51 78 -57 0
-309 -30 0
-309 102 0
-309 -51 0
-309 -21 0
-309 -82 0
309 30 -102 51 21 82 0
-310 -78 0
-310 -65 0
-310 -182 0
-310 152 0
-310 133 0
310 78 65 182 -152 -133 0
306 307 308 309 310 0
-311 -42 0
-311 -111 0
-311 -15 0
-311 154 0
-311 -94 0
311 42 111 15 -154 94 0
-312 -68 0
-312 -44 0
-312 -114 0
-312 -36 0
-312 8 0
312 68 44 114 36 -8 0
-313 187 0
-313 17 0
-313 132 0
-313 -32 0
-313 -158 0
313 -187 -17 -132 32 158 0
-314 -172 0
-314 90 0
-314 -166 0
-314 -94 0
-314 -13 0
314 172 -90 166 94 13 0
-315 55 0
-315 29 0
-315 -31 0
-315 171 0
-315 -57 0
315 -55 -29 31 -171 57 0
311 312 313 314 315 0
-316 -72 0
-316 182 0
-316 -84 0
-316 -99 0
-316 145 0
316 72 -182 84 99 -145 0
-317 35 0
-317 172 0
-317 101 0
-317 156 0
-317 115 0
317 -35 -172 -101 -156 -115 0
-318 -47 0
-318 -43 0
-318 -6 0
-318 96 0
-318 -73 0
318 47 43 6 -96 73 0
-319 -175 0
-319 -158 0
-319 -45 0
-319 -110 0
-319 -120 0
319 175 158 45 110 120 0
-320 -149 0
-320 -71 0
-320 -135 0
-320 180 0
-320 79 0
320 149 71 135 -180 -79 0
316 317 318 319 320 0
-321 38 0
-321 178 0
-321 48 0
-321 -179 0
-321 -126 0
321 -38 -178 -48 179 126 0
-322 -135 0
-322 -153 0
-322 50 0
-322 21 0
-322 89 0
322 135 153 -50 -21 -89 0
-323 -65 0
-323 -168 0
-323 42 0
-323 -6 0
-323 -127 0
323 65 168 -42 6 127 0
-324 72 0
-324 111 0
-324 3 0
-324 -69 0
-324 -1 0
324 -72 -111 -3 69 1 0
-325 117 0
-325 -180 0
-325 -143 0
-325 -88 0
-325 160 0
325 -117 180 143 88 -160 0
321 322 323 324 325 0
-326 -116 0
-326 -79 0
-326 43 0
-326 132 0
-326 -133 0
326 116 79 -43 -132 133 0
-327 -152 0
-327 87 0
-327 -142 0
-327 140 0
-327 -15 0
327 152 -87 142 -140 15 0
-328 74 0
-328 -93 0
-328 97 0
-328 -104 0
-328 -152 0
328 -74 93 -97 104 152 0
-329 8 0
-329 -174 0
-329 175 0
-329 167 0
-329 103 0
329 -8 174 -175 -167 -103 0
-330 60 0
-330 68 0
-330 122 0
-330 -90 0
-330 -127 0
330 -60 -68 -122 90 127 0
326 327 328 329 330 0
-331 121 0
-331 166 0
-331 -162 0
-331 178 0
-331 56 0
331 -121 -166 162 -178 -56 0
-332 131 0
-332 79 0
-332 -59 0
-332 -72 0
-332 -32 0
332 -131 -79 59 72 32 0
-333 3 0
-333 -76 0
-333 152 0
-333 86 0
-333 -119 0
333 -3 76 -152 -86 119 0
-334 -92 0
-334 -40 0
-334 41 0
-334 25 0
-334 -159 0
334 92 40 -41 -25 159 0
-335 60 0
-335 -183 0
-335 90 0
-335 -118 0
-335 -46 0
335 -60 183 -90 118 46 0
331 332 333 334 335 0
-336 -40 0
-336 -25 0
-336 70 0
-336 125 0
-336 -133 0
336 40 25 -70 -125 133 0
-337 142 0
-337 -31 0
-337 135 0
-337 101 0
-337 56 0
337 -142 31 -135 -101 -56 0
-338 167 0
-338 -116 0
-338 -112 0
-338 104 0
-338 -93 0
338 -167 116 112 -104 93 0
-339 -172 0
-339 92 0
-339 -11 0
-339 -6 0
-339 168 0
339 172 -92 11 6 -168 0
-340 154 0
-340 -59 0
-340 -186 0
-340 61 0
-340 126 0
340 -154 59 186 -61 -126 0
336 337 338 339 340 0
-341 9 0
-341 102 0
-341 64 0
-341 -92 0
-341 -12 0
341 -9 -102 -64 92 12 0
-342 150 0
-342 -168 0
-342 141 0
-342 131 0
-342 19 0
342 -150 168 -141 -131 -19 0
-343 -128 0
-343 41 0
-343 -6 0
-343 105 0
-343 16 0
343 128 -41 6 -105 -16 0
-344 -95 0
-344 -142 0
-344 70 0
-344 132 0
-344 -187 0
344 95 142 -70 -132 187 0
-345 -177 0
-345 -163 0
-345 113 0
-345 -169 0
-345 -174 0
345 177 163 -113 169 174 0
341 342 343 344 345 0
-346 -35 0
-346 94 0
-346 -8 0
-346 177 0
-346 -83 0
346 35 -94 8 -177 83 0
-347 -67 0
-347 62 0
-347 -46 0
-347 116 0
-347 -114 0
347 67 -62 46 -116 114 0
-348 122 0
-348 -151 0
-348 -185 0
-348 -48 0
-348 -117 0
348 -122 151 185 48 117 0
-349 111 0
-349 136 0
-349 43 0
-349 140 0
-349 77 0
349 -111 -136 -43 -140 -77 0
-350 -162 0
-350 -96 0
-350 59 0
-350 153 0
-350 -87 0
350 162 96 -59 -153 87 0
346 347 348 349 350 0
-351 -76 0
-351 -39 0
-351 64 0
-351 -86 0
-351 150 0
351 76 39 -64 86 -150 0
-352 -28 0
-352 186 0
-352 61 0
-352 122 0
-352 124 0
352 28 -186 -61 -122 -124 0
-353 -115 0
-353 -171 0
-353 175 0
-353 161 0
-353 -177 0
353 115 171 -175 -161 177 0
-354 -71 0
-354 -60 0
-354 -18 0
-354 -189 0
-354 183 0
354 71 60 18 189 -183 0
-355 6 0
-355 -40 0
-355 -51 0
-355 -7 0
-355 136 0
355 -6 40 51 7 -136 0
351 352 353 354 355 0
-356 -75 0
-356 -56 0
-356 -141 0
-356 -137 0
-356 60 0
356 75 56 141 137 -60 0
-357 -139 0
-357 -60 0
-357 -87 0
-357 141 0
-357 -178 0
357 139 60 87 -141 178 0
-358 150 0
-358 136 0
-358 -154 0
-358 61 0
-358 -187 0
358 -150 -136 154 -61 187 0
-359 81 0
-359 -177 0
-359 162 0
-359 -171 0
-359 94 0
359 -81 177 -162 171 -94 0
-360 175 0
-360 -162 0
-360 112 0
-360 -57 0
-360 145 0
360 -175 162 -112 57 -145 0
356 357 358 359 360 0
-361 -28 0
-361 94 0
-361 91 0
-361 -92 0
-361 35 0
361 28 -94 -91 92 -35 0
-362 -34 0
-362 133 0
-362 91 0
-362 111 0
-362 10 0
362 34 -133 -91 -111 -10 0
-363 125 0
-363 -122 0
-363 -60 0
-363 -74 0
-363 23 0
363 -125 122 60 74 -23 0
-364 46 0
-364 -114 0
-364 -61 0
-364 167 0
-364 104 0
364 -46 114 61 -167 -104 0
-365 -112 0
-365 165 0
-365 -11 0
-365 175 0
-365 -109 0
365 112 -165 11 -175 109 0
361 362 363 364 365 0
-366 127 0
-366 69 0
-366 -57 0
-366 137 0
-366 172 0
366 -127 -69 57 -137 -172 0
-367 21 0
-367 177 0
-367 26 0
-367 -106 0
-367 -140 0
367 -21 -177 -26 106 140 0
-368 48 0
-368 -86 0
-368 -76 0
-368 -64 0
-368 103 0
368 -48 86 76 64 -103 0
-369 97 0
-369 -57 0
-369 189 0
-369 -118 0
-369 -177 0
369 -97 57 -189 118 177 0
-370 -60 0
-370 -161 0
-370 29 0
-370 -59 0
-370 18 0
370 60 161 -29 59 -18 0
366 367 368 369 370 0
-371 188 0
-371 -50 0
-371 -1 0
-371 146 0
-371 -84 0
371 -188 50 1 -146 84 0
-372 38 0
-372 49 0
-372 124 0
-372 -31 0
-372 -160 0
372 -38 -49 -124 31 160 0
-373 -153 0
-373 -131 0
-373 -140 0
-373 176 0
-373 -14 0
373 153 131 140 -176 14 0
-374 184 0
-374 -66 0
-374 158 0
-374 -24 0
-374 132 0
374 -184 66 -158 24 -132 0
-375 28 0
-375 -41 0
-375 137 0
-375 -75 0
-375 -148 0
375 -28 41 -137 75 148 0
371 372 373 374 375 0
-376 -73 0
-376 167 0
-376 22 0
-376 -169 0
-376 -140 0
376 73 -167 -22 169 140 0
-377 -122 0
-377 159 0
-377 -106 0
-377 -114 0
-377 128 0
377 122 -159 106 114 -128 0
-378 -186 0
-378 129 0
-378 30 0
-378 58 0
-378 97 0
378 186 -129 -30 -58 -97 0
-379 17 0
-379 -28 0
-379 16 0
-379 8 0
-379 -164 0
379 -17 28 -16 -8 164 0
-380 -3 0
-380 -128 0
-380 126 0
-380 187 0
-380 -103 0
380 3 128 -126 -187 103 0
376 377 378 379 380 0
-381 125 0
-381 -72 0
-381 -42 0
-381 -181 0
-381 -190 0
381 -125 72 42 181 190 0
-382 23 0
-382 -116 0
-382 54 0
-382 -187 0
-382 -165 0
382 -23 116 -54 187 165 0
-383 116 0
-383 42 0
-383 -85 0
-383 173 0
-383 112 0
383 -116 -42 85 -173 -112 0
-384 -186 0
-384 -126 0
-384 10 0
-384 -80 0
-384 154 0
384 186 126 -10 80 -154 0
-385 -21 0
-385 189 0
-385 -75 0
-385 -4 0
-385 20 0
385 21 -189 75 4 -20 0
381 382 383 384 385 0
-386 68 0
-386 97 0
-386 -132 0
-386 -124 0
-386 137 0
386 -68 -97 132 124 -137 0
-387 -158 0
-387 -185 0
-387 18 0
-387 123 0
-387 -179 0
387 158 185 -18 -123 179 0
-388 -172 0
-388 169 0
-388 -20 0
-388 127 0
-388 -73 0
388 172 -169 20 -127 73 0
-389 -71 0
-389 92 0
-389 35 0
-389 -39 0
-389 -179 0
389 71 -92 -35 39 179 0
-390 80 0
-390 55 0
-390 158 0
-390 20 0
-390 -186 0
390 -80 -55 -158 -20 186 0
386 387 388 389 390 0
-391 -17 0
-391 -151 0
-391 -2 0
-391 86 0
-391 114 0
391 17 151 2 -86 -114 0
-392 -114 0
-392 65 0
-392 -108 0
-392 -57 0
-392 -140 0
392 114 -65 108 57 140 0
-393 150 0
-393 172 0
-393 99 0
-393 -127 0
-393 -44 0
393 -150 -172 -99 127 44 0
-394 75 0
-394 -133 0
-394 -145 0
-394 -180 0
-394 -87 0
394 -75 133 145 180 87 0
-395 34 0
-395 57 0
-395 53 0
-395 -132 0
-395 -2 0
395 -34 -57 -53 132 2 0
391 392 393 394 395 0
-396 159 0
-396 49 0
-396 59 0
-396 175 0
-396 51 0
396 -159 -49 -59 -175 -51 0
-397 -165 0
-397 104 0
-397 190 0
-397 69 0
-397 117 0
397 165 -104 -190 -69 -117 0
-398 41 0
-398 40 0
-398 175 0
-398 -172 0
-398 -60 0
398 -41 -40 -175 172 60 0
-399 -13 0
-399 26 0
-399 161 0
-399 -85 0
-399 142 0
399 13 -26 -161 85 -142 0
-400 36 0
-400 -147 0
-400 189 0
-400 51 0
-400 91 0
400 -36 147 -189 -51 -91 0
396 397 398 399 400 0
-401 -147 0
-401 24 0
-401 -167 0
-401 -108 0
-401 -74 0
401 147 -24 167 108 74 0
-402 175 0
-402 167 0
-402 10 0
-402 116 0
-402 34 0
402 -175 -167 -10 -116 -34 0
-403 128 0
-403 -30 0
-403 -39 0
-403 -148 0
-403 66 0
403 -128 30 39 148 -66 0
-404 -95 0
-404 -188 0
-404 63 0
-404 142 0
-404 -30 0
404 95 188 -63 -142 30 0
-405 -138 0
-405 -35 0
-405 114 0
-405 124 0
-405 170 0
405 138 35 -114 -124 -170 0
401 402 403 404 405 0
-406 155 0
-406 169 0
-406 179 0
-406 -88 0
-406 -19 0
406 -155 -169 -179 88 19 0
-407 -26 0
-407 -7 0
-407 9 0
-407 -23 0
-407 -124 0
407 26 7 -9 23 124 0
-408 -74 0
-408 -145 0
-408 -100 0
-408 -98 0
-408 140 0
408 74 145 100 98 -140 0
-409 162 0
-409 -77 0
-409 23 0
-409 18 0
-409 -8 0
409 -162 77 -23 -18 8 0
-410 -184 0
-410 -82 0
-410 -139 0
-410 103 0
-410 115 0
410 184 82 139 -103 -115 0
406 407 408 409 410 0
-411 -15 0
-411 -138 0
-411 38 0
-411 -109 0
-411 130 0
411 15 138 -38 109 -130 0
-412 -139 0
-412 134 0
-412 62 0
-412 153 0
-412 -78 0
412 139 -134 -62 -153 78 0
-413 41 0
-413 -102 0
-413 67 0
-413 142 0
-413 -161 0
413 -41 102 -67 -142 161 0
-414 -143 0
-414 -5 0
-414 -50 0
-414 -73 0
-414 44 0
414 143 5 50 73 -44 0
-415 90 0
-415 -67 0
-415 -173 0
-415 -171 0
-415 151 0
415 -90 67 173 171 -151 0
411 412 413 414 415 0
-416 93 0
-416 6 0
-416 150 0
-416 -125 0
-416 -61 0
416 -93 -6 -150 125 61 0
-417 129 0
-417 182 0
-417 50 0
-417 92 0
-417 -115 0
417 -129 -182 -50 -92 115 0
-418 -54 0
-418 115 0
-418 -84 0
-418 50 0
-418 167 0
418 54 -115 84 -50 -167 0
-419 -99 0
-419 147 0
-419 -72 0
-419 86 0
-419 61 0
419 99 -147 72 -86 -61 0
-420 -9 0
-420 -26 0
-420 -178 0
-420 -100 0
-420 -30 0
420 9 26 178 100 30 0
416 417 418 419 420 0
-421 -179 0
-421 56 0
-421 92 0
-421 169 0
-421 -158 0
421 179 -56 -92 -169 158 0
-422 -72 0
-422 33 0
-422 -123 0
-422 -152 0
-422 77 0
422 72 -33 123 152 -77 0
-423 91 0
-423 78 0
-423 -154 0
-423 97 0
-423 -122 0
423 -91 -78 154 -97 122 0
-424 113 0
-424 70 0
-424 -143 0
-424 83 0
-424 17 0
424 -113 -70 143 -83 -17 0
-425 51 0
-425 -130 0
-425 -92 0
-425 -43 0
-425 -158 0
425 -51 130 92 43 158 0
421 422 423 424 425 0
-426 -16 0
-426 -62 0
-426 -169 0
-426 -83 0
-426 61 0
426 16 62 169 83 -61 0
-427 64 0
-427 -57 0
-427 -85 0
-427 112 0
-427 93 0
427 -64 57 85 -112 -93 0
-428 -178 0
-428 106 0
-428 -183 0
-428 -158 0
-428 142 0
428 178 -106 183 158 -142 0
-429 -59 0
-429 -150 0
-429 166 0
-429 188 0
-429 165 0
429 59 150 -166 -188 -165 0
-430 -38 0
-430 -141 0
-430 134 0
-430 -162 0
-430 -110 0
430 38 141 -134 162 110 0
426 427 428 429 430 0
